Test: hole014_shuffled.cnf
Options: -no-inverting-opt -sym-usage-var-bump
WARNING: for repeatability, setting FPU to use double precision
============================[ Problem Statistics ]=============================
|                                                                             |
|  Number of symmetries:           27                                         |
|  Number of invertingSyms:         0                                         |
|  Number of variables:           210                                         |
|  Number of clauses:            1485                                         |
|  Parse time:                   0.00 s                                       |
|                                                                             |
============================[ Search Statistics ]==============================
| Conflicts |          ORIGINAL         |          LEARNT          | Progress |
|           |    Vars  Clauses Literals |    Limit  Clauses Lit/Cl |          |
===============================================================================
|       100 |     210     1485     3150 |      544      102     87 |  0.002 % |
|       250 |     210     1485     3150 |      598      282     77 |  0.002 % |
|       475 |     210     1485     3150 |      658      561     79 |  0.002 % |
|       812 |     210     1485     3150 |      724      675     67 |  0.002 % |
|      1318 |     210     1485     3150 |      797      383     56 |  0.002 % |
|      2077 |     210     1485     3150 |      876      692     56 |  0.002 % |
|      3216 |     210     1485     3150 |      964      756     64 |  0.002 % |
|      4924 |     210     1485     3150 |     1061      979     76 |  0.002 % |
|      7486 |     210     1485     3150 |     1167      766     77 |  0.002 % |
|     11330 |     210     1485     3150 |     1283      906     64 |  0.002 % |
|     17096 |     210     1485     3150 |     1412     1125     79 |  0.002 % |
|     25745 |     210     1485     3150 |     1553     1374     79 |  0.002 % |
|     38719 |     210     1485     3150 |     1708     1625     72 |  0.002 % |
|     58180 |     210     1485     3150 |     1879     1825     59 |  0.034 % |
|     87372 |     210     1485     3150 |     2067     1416     71 |  0.002 % |
|    131161 |     210     1485     3150 |     2274     1399     79 |  0.002 % |
|    196845 |     210     1485     3150 |     2501     1440     73 |  0.002 % |
|    295371 |     210     1485     3150 |     2752     1999     68 |  0.002 % |
|    443160 |     210     1485     3150 |     3027     2118     75 |  0.002 % |
|    664843 |     210     1485     3150 |     3330     1688     76 |  0.002 % |
|    997368 |     210     1485     3150 |     3663     1762     72 |  0.002 % |
|   1496156 |     210     1485     3150 |     4029     2799     80 |  0.002 % |
===============================================================================
restarts              : 3070
conflicts             : 1604977        (25253 /sec)
symconflicts          : 116467         (1833 /sec)
decisions             : 2584213        (0.00 % random) (40660 /sec)
propagations          : 33923918       (533764 /sec)
sympropagations       : 734310         (11554 /sec)
conflict literals     : 128077688      (7.07 % deleted)
literals     : 128077688      (7.07 % deleted)

HEURISTIC USAGES
random                : 0           
activity w/ lookahead : 0           
activity no lookahead : 0           
original sp           : 2584213     
sym count             : 0           

Memory used           : 10.00 MB
CPU time              : 63.556 s

UNSATISFIABLE
